c Random Network
p max    10      20
n         1  s
n        10  t
a       2       5      12
a       5       7      27
a       1       2      50
a      10       2      37
a       3       1      30
a       1       3      35
a       7       6      25
a       2       8      29
a       2       1      15
a      10       5      19
a       2       9      11
a       7       1      36
a       9       1      39
a       3      10      50
a       4       1      20
a       2       4      23
a       1       4       3
a       3       4      25
a      10       1      12
a       3       6      40
